(set-option :produce-models true); benchmark generated from python API
(set-info :status unknown)
(declare-fun l_1_0_8 () Real)
(declare-fun l_1_0_7 () Real)
(declare-fun l_1_0_6 () Real)
(declare-fun l_1_0_5 () Real)
(declare-fun l_1_0_4 () Real)
(declare-fun l_1_0_3 () Real)
(declare-fun l_1_0_2 () Real)
(declare-fun l_1_0_11 () Real)
(declare-fun l_1_0_10 () Real)
(declare-fun l_1_0_1 () Real)
(declare-fun _a_0_ () Real)
(declare-fun l_1_0_9 () Real)
(declare-fun l_1_0_12 () Real)
(declare-fun _a_1_ () Real)
(declare-fun _a_2_ () Real)
(declare-fun l_1_0_14 () Real)
(declare-fun l_1_0_13 () Real)
(declare-fun _a_3_ () Real)
(declare-fun l_1_1_8 () Real)
(declare-fun l_1_1_6 () Real)
(declare-fun l_1_1_4 () Real)
(declare-fun l_1_1_3 () Real)
(declare-fun l_1_1_17 () Real)
(declare-fun l_1_1_16 () Real)
(declare-fun l_1_1_14 () Real)
(declare-fun l_1_1_13 () Real)
(declare-fun l_1_1_11 () Real)
(declare-fun l_1_1_10 () Real)
(declare-fun l_1_1_1 () Real)
(declare-fun l_1_1_9 () Real)
(declare-fun l_1_1_7 () Real)
(declare-fun l_1_1_5 () Real)
(declare-fun l_1_1_2 () Real)
(declare-fun l_1_1_12 () Real)
(declare-fun l_1_1_20 () Real)
(declare-fun l_1_1_19 () Real)
(declare-fun l_1_1_18 () Real)
(declare-fun l_1_1_15 () Real)
(declare-fun l_1_2_9 () Real)
(declare-fun l_1_2_6 () Real)
(declare-fun l_1_2_5 () Real)
(declare-fun l_1_2_3 () Real)
(declare-fun l_1_2_2 () Real)
(declare-fun l_1_2_17 () Real)
(declare-fun l_1_2_16 () Real)
(declare-fun l_1_2_14 () Real)
(declare-fun l_1_2_13 () Real)
(declare-fun l_1_2_11 () Real)
(declare-fun l_1_2_10 () Real)
(declare-fun l_1_2_8 () Real)
(declare-fun l_1_2_7 () Real)
(declare-fun l_1_2_4 () Real)
(declare-fun l_1_2_12 () Real)
(declare-fun l_1_2_1 () Real)
(declare-fun l_1_2_15 () Real)
(declare-fun l_1_2_18 () Real)
(declare-fun l_1_2_20 () Real)
(declare-fun l_1_2_19 () Real)
(assert
 (let ((?x44 (* (/ 1.0 8.0) l_1_0_4)))
 (let ((?x45 (* (/ 1.0 8.0) l_1_0_3)))
 (let ((?x47 (* (/ 1.0 64.0) l_1_0_2)))
 (let ((?x1223 (* l_1_0_11 l_1_0_11)))
 (let ((?x50 (- (- (- _a_0_ (* (/ 1.0 8.0) l_1_0_1)) (* l_1_0_10 l_1_0_10)) ?x1223)))
 (let ((?x39 (- (- (- (- (- (- ?x50 ?x47) ?x45) ?x44) l_1_0_5) l_1_0_6) l_1_0_7)))
 (= (- ?x39 l_1_0_8) 0.0))))))))
(assert
 (let ((?x48 (* 2.0 l_1_0_2)))
 (= (- (- _a_1_ (* (* 2.0 l_1_0_12) l_1_0_9)) ?x48) 0.0)))
(assert
 (let ((?x992 (* l_1_0_9 l_1_0_9)))
 (let ((?x852 (+ (+ (- (+ _a_2_ l_1_0_1) (* (/ 3.0 4.0) l_1_0_2)) l_1_0_3) l_1_0_4)))
 (= (- ?x852 ?x992) 0.0))))
(assert
 (let ((?x1034 (* (/ 3.0 4.0) l_1_0_2)))
 (let ((?x918 (* l_1_0_14 l_1_0_14)))
 (let ((?x773 (* l_1_0_13 l_1_0_13)))
 (let ((?x920 (- (- (- (- (+ _a_3_ l_1_0_1) (* l_1_0_12 l_1_0_12)) ?x773) ?x918) ?x1034)))
 (= (+ (+ ?x920 l_1_0_3) l_1_0_4) 0.0))))))
(assert
 (let ((?x860 (* 1.0 l_1_0_4)))
 (let ((?x858 (* 1.0 l_1_0_3)))
 (let ((?x856 (* (/ 1.0 4.0) l_1_0_2)))
 (let ((?x859 (- (- (- (* (- 1.0) l_1_0_1) (* (* 2.0 l_1_0_10) l_1_0_9)) ?x856) ?x858)))
 (= (- ?x859 ?x860) 0.0))))))
(assert
 (let ((?x860 (* 1.0 l_1_0_4)))
 (let ((?x858 (* 1.0 l_1_0_3)))
 (let ((?x856 (* (/ 1.0 4.0) l_1_0_2)))
 (let ((?x825 (- (- (* (- 1.0) l_1_0_1) (* (* 2.0 l_1_0_10) l_1_0_12)) (* (* 2.0 l_1_0_11) l_1_0_13))))
 (= (- (- (- ?x825 ?x856) ?x858) ?x860) 0.0))))))
(assert
 (= (- l_1_0_2) 0.0))
(assert
 (let ((?x48 (* 2.0 l_1_0_2)))
 (= ?x48 0.0)))
(assert
 (let ((?x1030 (* (- 2.0) l_1_0_2)))
 (= ?x1030 0.0)))
(assert
 (let ((?x48 (* 2.0 l_1_0_2)))
 (= ?x48 0.0)))
(assert
 (let ((?x48 (* 2.0 l_1_0_2)))
 (= ?x48 0.0)))
(assert
 (= (- l_1_0_2) 0.0))
(assert
 (let ((?x48 (* 2.0 l_1_0_2)))
 (= ?x48 0.0)))
(assert
 (>= l_1_0_1 0.0))
(assert
 (>= l_1_0_2 0.0))
(assert
 (>= l_1_0_3 0.0))
(assert
 (>= l_1_0_4 0.0))
(assert
 (>= l_1_0_5 0.0))
(assert
 (>= l_1_0_6 0.0))
(assert
 (>= l_1_0_7 0.0))
(assert
 (>= l_1_0_8 0.0))
(assert
 (>= l_1_0_9 0.0))
(assert
 (>= l_1_0_11 0.0))
(assert
 (>= l_1_0_14 0.0))
(assert
 (let ((?x711 (* l_1_1_17 l_1_1_17)))
 (let ((?x709 (* l_1_1_16 l_1_1_16)))
 (let ((?x743 (* _a_0_ l_1_1_9)))
 (let ((?x566 (* _a_0_ l_1_1_7)))
 (let ((?x565 (+ (- (* (* 1.0 _a_0_) l_1_1_12) (* _a_0_ l_1_1_2)) (* (* 1.0 _a_0_) l_1_1_5))))
 (let ((?x730 (- (+ (- (- (- ?x565 ?x566) ?x743) l_1_1_1) (* 1.0 l_1_1_10)) l_1_1_11)))
 (let ((?x694 (- (- (- (- (+ ?x730 (* 1.0 l_1_1_13)) l_1_1_14) ?x709) ?x711) (* (* l_1_1_3 _a_0_) _a_0_))))
 (let ((?x659 (+ (- (- (+ ?x694 (* 1.0 l_1_1_4)) l_1_1_6) (* 1.0 l_1_1_8)) 4.0)))
 (= ?x659 0.0))))))))))
(assert
 (let ((?x422 (* l_1_1_20 l_1_1_20)))
 (let ((?x420 (* l_1_1_19 l_1_1_19)))
 (let ((?x418 (* l_1_1_18 l_1_1_18)))
 (let ((?x479 (* _a_3_ l_1_1_9)))
 (let ((?x477 (* _a_3_ l_1_1_7)))
 (let ((?x473 (* _a_3_ l_1_1_2)))
 (let ((?x472 (+ (* (* (* (- 2.0) _a_0_) _a_3_) l_1_1_3) (* (* 1.0 _a_3_) l_1_1_12))))
 (let ((?x480 (- (- (+ (- ?x472 ?x473) (* (* 1.0 _a_3_) l_1_1_5)) ?x477) ?x479)))
 (= (- (- (- (- ?x480 ?x418) ?x420) ?x422) 1.0) 0.0))))))))))
(assert
 (let ((?x369 (* _a_1_ l_1_1_9)))
 (let ((?x368 (* _a_1_ l_1_1_7)))
 (let ((?x12 (* _a_1_ l_1_1_2)))
 (let ((?x373 (+ (* (* (* (- 2.0) _a_0_) _a_1_) l_1_1_3) (* (* 1.0 _a_1_) l_1_1_12))))
 (let ((?x370 (- (- (+ (- ?x373 ?x12) (* (* 1.0 _a_1_) l_1_1_5)) ?x368) ?x369)))
 (= (- ?x370 (* (* 2.0 l_1_1_15) l_1_1_18)) 0.0)))))))
(assert
 (let ((?x16 (* l_1_1_15 l_1_1_15)))
 (let ((?x18 (* _a_2_ l_1_1_9)))
 (let ((?x307 (* _a_2_ l_1_1_7)))
 (let ((?x317 (* _a_2_ l_1_1_2)))
 (let ((?x316 (+ (* (* (* (- 2.0) _a_0_) _a_2_) l_1_1_3) (* (* 1.0 _a_2_) l_1_1_12))))
 (let ((?x264 (- (- (+ (- ?x316 ?x317) (* (* 1.0 _a_2_) l_1_1_5)) ?x307) ?x18)))
 (= (- ?x264 ?x16) 0.0))))))))
(assert
 (let ((?x246 (* _a_1_ _a_1_)))
 (let ((?x183 (+ ?x246 (* (* 2.0 _a_2_) _a_3_))))
 (let ((?x245 (- l_1_1_3)))
 (= (* ?x245 ?x183) 0.0)))))
(assert
 (= (* (* (* (- 2.0) _a_1_) _a_2_) l_1_1_3) 0.0))
(assert
 (= (* (* (* (- 2.0) _a_1_) _a_3_) l_1_1_3) 0.0))
(assert
 (= (* (* (- l_1_1_3) _a_2_) _a_2_) 0.0))
(assert
 (= (* (* (- l_1_1_3) _a_3_) _a_3_) 0.0))
(assert
 (= (* (* (- 2.0) l_1_1_15) l_1_1_16) 0.0))
(assert
 (let ((?x61 (- (* (* (- 2.0) l_1_1_16) l_1_1_18) (* (* 2.0 l_1_1_17) l_1_1_19))))
 (= ?x61 0.0)))
(assert
 (>= l_1_1_1 0.0))
(assert
 (>= l_1_1_2 0.0))
(assert
 (>= l_1_1_3 0.0))
(assert
 (>= l_1_1_4 0.0))
(assert
 (>= l_1_1_5 0.0))
(assert
 (>= l_1_1_6 0.0))
(assert
 (>= l_1_1_7 0.0))
(assert
 (>= l_1_1_8 0.0))
(assert
 (>= l_1_1_9 0.0))
(assert
 (>= l_1_1_10 0.0))
(assert
 (>= l_1_1_11 0.0))
(assert
 (>= l_1_1_12 0.0))
(assert
 (>= l_1_1_13 0.0))
(assert
 (>= l_1_1_14 0.0))
(assert
 (>= l_1_1_15 0.0))
(assert
 (>= l_1_1_17 0.0))
(assert
 (>= l_1_1_20 0.0))
(assert
 (let ((?x724 (* l_1_2_17 l_1_2_17)))
 (let ((?x744 (* l_1_2_16 l_1_2_16)))
 (let ((?x965 (* _a_0_ l_1_2_8)))
 (let ((?x955 (* _a_0_ l_1_2_4)))
 (let ((?x960 (- (- (* (- _a_0_) l_1_2_1) (* (* 1.0 _a_0_) l_1_2_12)) ?x955)))
 (let ((?x972 (- (+ (- (- ?x960 (* (* 1.0 _a_0_) l_1_2_7)) ?x965) _a_0_) (* 1.0 l_1_2_10))))
 (let ((?x175 (- (- (- (- (- (- ?x972 l_1_2_11) l_1_2_13) l_1_2_14) ?x744) ?x724) l_1_2_2)))
 (let ((?x91 (- (- (- ?x175 (* (* l_1_2_3 _a_0_) _a_0_)) (* 1.0 l_1_2_5)) (* 1.0 l_1_2_6))))
 (= (- ?x91 (* 1.0 l_1_2_9)) 0.0))))))))))
(assert
 (let ((?x704 (* l_1_2_15 l_1_2_15)))
 (let ((?x881 (* (/ 1.0 100.0) _a_3_)))
 (let ((?x885 (* (/ 790123456790123.0 1000000000000000.0) _a_2_)))
 (let ((?x882 (* _a_2_ l_1_2_8)))
 (let ((?x1056 (* _a_2_ l_1_2_4)))
 (let ((?x1043 (* _a_2_ l_1_2_1)))
 (let ((?x1044 (- (+ (* (* (* (- 2.0) _a_0_) _a_2_) l_1_2_3) (* (/ 888888888888889.0 10000000000000000.0) _a_1_)) ?x1043)))
 (let ((?x877 (- (- (- ?x1044 (* (* 1.0 _a_2_) l_1_2_12)) ?x1056) (* (* 1.0 _a_2_) l_1_2_7))))
 (= (- (+ (+ (- ?x877 ?x882) ?x885) ?x881) ?x704) 0.0))))))))))
(assert
 (let ((?x293 (* (/ 9.0 50.0) _a_3_)))
 (let ((?x1061 (* (/ 493827160493827.0 5000000000000000.0) _a_2_)))
 (let ((?x364 (* (/ 198611111111111.0 250000000000000.0) _a_1_)))
 (let ((?x1104 (* _a_1_ l_1_2_8)))
 (let ((?x1094 (* _a_1_ l_1_2_4)))
 (let ((?x670 (* _a_1_ l_1_2_1)))
 (let ((?x511 (- (- (* (* (* (- 2.0) _a_0_) _a_1_) l_1_2_3) ?x670) (* (* 1.0 _a_1_) l_1_2_12))))
 (let ((?x1003 (+ (- (- (- ?x511 ?x1094) (* (* 1.0 _a_1_) l_1_2_7)) ?x1104) ?x364)))
 (= (- (+ (- ?x1003 ?x1061) ?x293) (* (* 2.0 l_1_2_15) l_1_2_18)) 0.0))))))))))
(assert
 (let ((?x1128 (* l_1_2_20 l_1_2_20)))
 (let ((?x1134 (* l_1_2_19 l_1_2_19)))
 (let ((?x1132 (* l_1_2_18 l_1_2_18)))
 (let ((?x555 (* (/ 81.0 100.0) _a_3_)))
 (let ((?x551 (* _a_3_ l_1_2_8)))
 (let ((?x550 (* _a_3_ l_1_2_4)))
 (let ((?x401 (* _a_3_ l_1_2_1)))
 (let ((?x399 (* (/ 154320987654321.0 50000000000000000.0) _a_2_)))
 (let ((?x400 (+ (- (* (* (* (- 2.0) _a_0_) _a_3_) l_1_2_3) (* (/ 1.0 20.0) _a_1_)) ?x399)))
 (let ((?x557 (- (- (- (- ?x400 ?x401) (* (* 1.0 _a_3_) l_1_2_12)) ?x550) (* (* 1.0 _a_3_) l_1_2_7))))
 (= (- (- (- (+ (- ?x557 ?x551) ?x555) ?x1132) ?x1134) ?x1128) 0.0))))))))))))
(assert
 (let ((?x246 (* _a_1_ _a_1_)))
 (let ((?x183 (+ ?x246 (* (* 2.0 _a_2_) _a_3_))))
 (let ((?x224 (- l_1_2_3)))
 (= (* ?x224 ?x183) 0.0)))))
(assert
 (= (* (* (* (- 2.0) _a_1_) _a_2_) l_1_2_3) 0.0))
(assert
 (= (* (* (* (- 2.0) _a_1_) _a_3_) l_1_2_3) 0.0))
(assert
 (= (* (* (- l_1_2_3) _a_2_) _a_2_) 0.0))
(assert
 (= (* (* (- l_1_2_3) _a_3_) _a_3_) 0.0))
(assert
 (= (* (* (- 2.0) l_1_2_15) l_1_2_16) 0.0))
(assert
 (let ((?x208 (- (* (* (- 2.0) l_1_2_16) l_1_2_18) (* (* 2.0 l_1_2_17) l_1_2_19))))
 (= ?x208 0.0)))
(assert
 (>= l_1_2_1 0.0))
(assert
 (>= l_1_2_2 0.0))
(assert
 (>= l_1_2_3 0.0))
(assert
 (>= l_1_2_4 0.0))
(assert
 (>= l_1_2_5 0.0))
(assert
 (>= l_1_2_6 0.0))
(assert
 (>= l_1_2_7 0.0))
(assert
 (>= l_1_2_8 0.0))
(assert
 (>= l_1_2_9 0.0))
(assert
 (>= l_1_2_10 0.0))
(assert
 (>= l_1_2_11 0.0))
(assert
 (>= l_1_2_12 0.0))
(assert
 (>= l_1_2_13 0.0))
(assert
 (>= l_1_2_14 0.0))
(assert
 (>= l_1_2_15 0.0))
(assert
 (>= l_1_2_17 0.0))
(assert
 (>= l_1_2_20 0.0))
(check-sat)
(get-model)